NAME: random101
TYPE: TSP
DIMENSION: 101
EDGE_WEIGHT_TYPE: EXPLICIT
EDGE_WEIGHT_FORMAT: FULL_MATRIX
EDGE_WEIGHT_SECTION
0 605 31 605 605 22 605 605 605 605 605 605 605 1 22 605 24 605 605 35 605 605 605 605 20 17 605 605 605 605 32 605 9 605 605 605 20 605 15 605 605 19 605 605 605 605 22 605 13 22 605 35 605 605 605 605 605 605 605 605 605 605 23 29 15 26 605 605 605 605 605 605 605 605 32 605 605 24 605 605 605 31 17 13 605 605 22 605 605 605 605 605 605 605 605 15 28 27 605 605 605
605 0 605 605 605 605 605 605 44 605 605 4 605 605 605 605 605 605 605 605 10 605 17 605 605 605 5 605 605 3 605 605 605 30 47 605 605 605 605 605 605 605 605 28 605 44 605 67 605 605 605 605 605 13 605 605 605 605 605 605 605 605 605 605 605 605 605 38 605 605 605 605 605 605 605 605 605 48 605 605 605 605 605 605 605 605 605 16 605 605 605 13 26 605 605 605 35 605 57 48 605
31 605 0 605 605 605 605 605 605 605 605 605 605 30 30 23 605 605 18 17 605 6 605 605 605 31 605 605 605 605 25 605 30 605 605 21 605 605 31 605 18 605 605 605 605 605 605 605 605 16 605 605 605 605 605 9 605 605 605 605 605 605 605 605 605 605 605 605 605 605 605 5 605 34 605 605 605 605 28 605 20 605 605 33 605 12 605 605 14 25 605 605 605 605 10 605 605 5 605 605 605
605 605 605 0 605 605 17 605 605 605 605 605 16 605 605 605 605 605 605 23 605 39 605 605 605 605 605 605 605 605 14 605 30 605 605 605 605 605 605 605 605 605 605 605 605 605 605 605 35 605 605 605 605 605 605 43 605 605 10 605 605 605 605 605 25 605 15 605 605 605 605 605 605 605 7 13 26 605 61 25 22 605 605 605 18 605 605 605 605 605 605 605 605 9 43 605 605 35 605 605 605
605 605 605 605 0 23 605 25 605 9 605 605 605 605 605 605 605 605 605 605 605 605 605 6 605 605 605 16 23 605 605 605 605 40 605 605 605 7 605 10 605 605 25 605 605 605 21 605 605 605 15 605 27 605 605 605 20 605 605 21 605 22 605 605 605 605 605 605 20 19 13 605 8 605 605 605 605 605 605 605 605 19 605 605 605 605 605 605 605 605 605 605 53 605 605 605 605 605 605 605 605
22 605 605 605 23 0 605 605 605 19 605 605 605 23 605 605 15 605 605 605 605 605 605 605 20 605 605 23 22 605 605 605 30 33 605 605 12 18 605 605 605 605 605 605 605 605 8 605 26 605 14 18 605 605 605 605 15 605 605 605 605 605 12 605 605 19 605 605 605 605 605 605 17 605 605 605 605 605 605 605 605 9 14 18 605 605 605 605 605 605 605 605 605 605 605 11 605 605 605 605 18
605 605 605 17 605 605 0 605 21 605 605 605 21 605 605 605 605 605 605 605 605 605 605 605 605 605 605 605 605 605 28 605 605 605 20 605 605 605 605 605 605 605 605 605 18 21 605 18 605 605 605 605 605 605 605 605 605 605 7 605 8 605 605 14 24 605 20 29 605 605 605 605 605 605 19 6 17 23 605 19 37 605 605 605 7 605 21 605 605 605 605 605 605 15 605 605 605 605 8 22 605
605 605 605 605 25 605 605 0 605 24 605 605 605 605 39 605 605 11 605 605 605 605 605 30 605 605 605 605 605 605 605 25 605 605 605 605 605 31 605 26 605 605 3 605 605 605 605 605 605 605 29 605 6 605 12 605 31 50 605 26 605 18 605 605 605 605 605 605 605 14 605 605 27 35 605 605 605 605 605 605 605 605 605 605 605 605 605 605 605 605 18 605 78 605 605 605 605 605 605 605 605
605 44 605 605 605 605 21 605 0 605 605 605 605 605 605 605 605 605 605 605 605 605 34 605 605 605 38 605 605 43 605 605 605 605 5 605 605 605 605 605 605 605 605 43 605 1 605 25 31 605 605 605 605 605 605 605 605 605 605 605 16 605 605 16 31 37 605 8 605 605 605 605 605 605 605 24 28 19 605 33 605 605 605 605 19 605 22 28 605 605 605 43 605 605 605 605 32 605 14 9 605
605 605 605 605 9 19 605 24 605 0 605 605 605 605 27 605 605 23 605 605 605 605 605 13 21 605 605 22 605 605 605 30 605 605 605 605 17 10 605 18 605 605 26 605 605 605 14 605 605 605 7 605 24 605 23 605 12 51 605 12 605 15 605 605 605 605 605 605 26 23 20 605 4 605 605 605 605 605 605 605 605 18 605 605 605 605 605 605 605 605 23 605 58 605 605 605 605 605 605 605 605
605 605 605 605 605 605 605 605 605 605 0 605 605 18 6 605 605 605 605 605 605 605 605 605 3 1 605 605 605 605 605 605 605 605 605 605 10 605 3 605 20 2 605 605 605 605 605 605 605 16 605 605 605 605 605 605 13 605 605 14 605 605 605 605 605 605 605 605 605 605 605 605 605 605 605 605 605 605 605 605 605 605 7 5 605 605 605 605 605 605 26 605 605 605 605 10 605 605 605 605 605
605 4 605 605 605 605 605 605 605 605 605 0 605 605 605 605 605 605 605 605 6 605 18 605 605 605 9 605 605 4 605 605 605 28 605 605 605 605 605 605 605 605 605 605 605 605 605 605 605 605 605 605 605 10 605 605 605 605 605 605 605 605 605 605 605 605 605 41 52 605 605 605 605 605 605 605 605 605 605 605 605 605 605 605 605 605 605 18 605 605 605 12 22 605 605 605 605 605 605 51 605
605 605 605 16 605 605 21 605 605 605 605 605 0 605 605 605 605 605 605 36 605 605 605 605 605 605 605 605 605 605 28 605 605 605 605 605 605 605 605 605 605 605 605 605 605 605 605 605 605 605 605 605 605 605 605 55 605 605 18 605 605 605 605 605 605 605 1 605 605 605 605 605 605 605 22 605 18 605 72 14 33 605 605 605 605 62 605 605 64 605 605 605 605 7 56 605 605 605 605 605 605
1 605 30 605 605 23 605 605 605 605 18 605 605 0 22 605 25 605 605 34 605 36 605 605 605 17 605 605 605 605 31 605 8 605 605 31 20 605 15 605 29 19 605 605 605 605 605 605 14 21 605 605 605 605 605 605 605 605 605 605 605 605 24 605 15 605 605 605 605 605 605 36 605 605 32 605 605 605 605 605 37 605 17 13 605 41 22 605 605 605 605 605 605 605 605 15 605 26 605 605 605
22 605 30 605 605 605 605 39 605 27 6 605 605 22 0 32 605 29 32 605 605 35 605 605 6 6 605 605 605 605 605 22 29 605 605 15 14 605 8 605 15 6 42 605 605 605 19 605 605 14 20 605 34 605 28 605 16 28 605 15 605 21 605 605 605 605 605 605 605 605 605 34 605 18 605 605 605 605 605 605 605 605 12 11 605 34 605 605 605 21 23 605 605 605 605 16 605 28 605 605 605
605 605 23 605 605 605 605 605 605 605 605 605 605 605 32 0 605 605 5 605 605 605 605 605 605 605 605 605 605 605 605 33 605 605 605 17 605 605 605 605 18 605 605 605 605 605 605 605 605 605 605 605 52 605 605 605 605 8 605 605 605 605 605 605 605 605 605 605 605 605 605 605 605 23 605 605 605 605 18 605 605 605 605 605 605 13 605 605 12 12 605 605 605 605 21 605 605 605 605 605 605
24 605 605 605 605 15 605 605 605 605 605 605 605 25 605 605 0 605 605 605 605 605 26 605 605 605 605 605 24 605 605 605 29 25 605 605 605 605 605 605 605 605 605 17 605 605 23 605 20 605 605 12 605 605 605 605 605 605 605 605 605 605 3 605 30 4 605 605 605 605 605 605 605 605 605 605 605 26 605 605 605 17 605 28 605 605 27 32 605 605 605 30 605 605 605 22 9 605 605 605 16
605 605 605 605 605 605 605 11 605 23 605 605 605 605 29 605 605 0 605 605 605 605 605 605 605 605 605 605 605 605 605 13 605 605 605 605 605 605 605 605 605 605 14 605 605 605 605 605 605 605 605 605 6 605 1 605 605 39 605 20 605 11 605 605 605 605 605 605 605 605 605 605 605 24 605 605 605 605 605 605 605 605 605 605 605 605 605 605 605 35 7 605 605 605 605 605 605 605 605 605 605
605 605 18 605 605 605 605 605 605 605 605 605 605 605 32 5 605 605 0 605 605 17 605 605 605 605 605 605 605 605 605 36 605 605 605 17 605 605 605 605 16 605 605 605 605 605 605 605 605 22 605 605 605 605 605 16 605 12 605 605 605 605 605 605 605 605 605 605 605 605 605 16 605 25 605 605 605 605 17 605 37 605 605 605 605 8 605 605 7 14 605 605 605 605 15 605 605 22 605 605 605
35 605 17 23 605 605 605 605 605 605 605 605 36 34 605 605 605 605 605 0 605 17 605 605 605 605 605 605 605 605 11 605 30 605 605 605 605 605 605 605 34 605 605 605 605 605 605 605 40 30 605 605 605 605 605 20 605 605 32 605 605 605 605 605 30 605 35 605 605 605 605 18 605 605 19 605 605 605 38 605 3 605 605 605 605 27 605 605 605 605 605 605 605 31 20 605 605 16 605 605 605
605 10 605 605 605 605 605 605 605 605 605 6 605 605 605 605 605 605 605 605 0 605 18 605 605 605 13 605 40 9 605 605 605 23 605 605 605 605 605 65 605 605 605 24 605 605 605 605 605 605 605 605 605 6 605 605 605 605 605 605 605 605 605 605 605 605 605 45 46 605 605 605 605 605 605 605 605 605 605 605 605 605 605 605 605 605 605 605 605 605 605 10 16 605 605 605 605 605 605 605 605
605 605 6 39 605 605 605 605 605 605 605 605 605 36 35 605 605 605 17 17 605 0 605 605 605 605 605 605 605 605 26 605 35 605 605 605 605 605 36 605 22 605 605 605 605 605 605 605 605 22 605 605 605 605 605 4 605 605 605 605 605 605 605 605 39 605 605 605 605 605 605 1 605 605 605 605 605 605 23 605 19 605 605 605 605 10 605 605 605 605 605 605 605 605 5 605 605 10 605 605 605
605 17 605 605 605 605 605 605 34 605 605 18 605 605 605 605 26 605 605 605 18 605 0 605 605 605 13 605 605 14 605 605 605 23 605 605 605 605 605 605 605 605 605 15 605 34 605 605 36 605 605 26 605 15 605 605 605 605 605 605 605 605 605 39 605 22 605 30 605 605 605 605 605 605 605 605 605 33 605 605 605 605 605 605 605 605 36 9 605 605 605 9 28 605 605 605 19 605 605 41 30
605 605 605 605 6 605 605 30 605 13 605 605 605 605 605 605 605 605 605 605 605 605 605 0 605 605 605 11 17 605 605 605 605 35 605 605 605 5 605 10 605 605 605 605 605 605 22 605 605 605 18 605 605 605 605 605 605 605 605 605 605 605 605 605 605 605 605 605 14 23 8 605 10 605 605 605 605 605 605 605 605 16 605 605 605 605 605 605 605 605 605 605 48 605 605 605 605 605 605 605 22
20 605 605 605 605 20 605 605 605 21 3 605 605 605 6 605 605 605 605 605 605 605 605 605 0 4 605 605 605 605 605 25 605 605 605 605 8 605 6 605 605 1 605 605 605 605 13 605 605 605 15 605 605 605 28 605 10 605 605 11 605 19 605 605 605 605 605 605 605 605 605 605 22 23 605 605 605 605 605 605 605 605 6 7 605 605 605 605 605 605 23 605 605 605 605 10 605 605 605 605 605
17 605 31 605 605 605 605 605 605 605 1 605 605 17 6 605 605 605 605 605 605 605 605 605 4 0 605 605 605 605 605 605 25 605 605 20 10 605 2 605 20 3 605 605 605 605 15 605 605 16 605 605 605 605 605 605 13 605 605 15 605 605 29 605 605 605 605 605 605 605 605 605 605 605 605 605 605 605 605 605 605 605 7 5 605 605 605 605 605 605 605 605 605 605 605 10 605 29 605 605 605
605 5 605 605 605 605 605 605 38 605 605 9 605 605 605 605 605 605 605 605 13 605 13 605 605 605 0 605 605 5 605 605 605 30 41 605 605 605 605 605 605 605 605 26 605 39 605 605 47 605 605 37 605 14 605 605 605 605 605 605 605 605 605 47 605 35 605 32 605 605 605 605 605 605 605 605 605 43 605 605 605 605 605 605 605 605 605 10 605 605 605 13 29 605 605 605 31 605 51 43 605
605 605 605 605 16 23 605 605 605 22 605 605 605 605 605 605 605 605 605 605 605 605 605 11 605 605 605 0 8 605 605 605 605 25 605 605 605 12 605 18 605 605 605 605 605 605 26 605 605 605 25 20 605 43 605 605 605 605 605 605 605 605 27 605 605 605 605 605 5 32 5 605 19 605 605 605 605 605 605 605 605 15 605 605 605 605 605 605 605 605 605 605 37 605 605 605 605 605 605 605 15
605 605 605 605 23 22 605 605 605 605 605 605 605 605 605 605 24 605 605 605 40 605 605 17 605 605 605 8 0 605 605 605 605 18 605 605 605 17 605 25 605 605 605 22 605 605 27 605 605 605 605 13 605 35 605 605 605 605 605 605 605 605 23 605 605 26 605 605 9 39 13 605 23 605 605 605 605 605 605 605 605 13 605 605 605 605 605 605 605 605 605 34 31 605 605 605 605 605 605 605 8
605 3 605 605 605 605 605 605 43 605 605 4 605 605 605 605 605 605 605 605 9 605 14 605 605 605 5 605 605 0 605 605 605 28 46 605 605 605 605 605 605 605 605 25 605 605 605 605 605 605 605 36 605 11 605 605 605 605 605 605 605 605 605 605 605 605 605 37 52 605 605 605 605 605 605 605 605 605 605 605 605 605 605 605 605 605 605 14 605 605 605 11 25 605 605 605 33 605 605 47 605
32 605 25 14 605 605 28 605 605 605 605 605 28 31 605 605 605 605 605 11 605 26 605 605 605 605 605 605 605 605 0 605 24 605 605 605 605 605 41 605 605 605 605 605 605 605 605 605 33 34 605 605 605 605 605 29 605 605 21 605 605 605 52 30 23 605 27 605 605 605 605 27 605 605 9 22 605 34 48 38 10 605 605 41 26 36 30 605 605 605 605 605 605 22 30 605 605 21 605 605 605
605 605 605 605 605 605 605 25 605 30 605 605 605 605 22 33 605 13 36 605 605 605 605 605 25 605 605 605 605 605 605 0 605 605 605 24 605 605 605 605 27 25 28 605 605 605 605 605 605 31 605 605 19 605 13 605 26 26 605 21 605 15 605 605 605 605 605 605 605 37 605 605 605 11 605 605 605 605 52 605 605 605 605 605 605 605 605 605 605 22 8 605 605 605 605 605 605 605 605 605 605
9 605 30 30 605 30 605 605 605 605 605 605 605 8 29 605 29 605 605 30 605 35 605 605 605 25 605 605 605 605 24 605 0 605 605 605 605 605 23 605 33 605 605 605 605 605 605 605 11 25 605 40 605 605 605 39 605 605 29 605 605 605 28 22 7 30 605 605 605 605 605 605 605 605 24 26 605 19 605 605 31 605 25 21 26 605 16 605 605 605 605 605 605 605 605 23 30 25 605 605 605
605 30 605 605 40 33 605 605 605 605 605 28 605 605 605 605 25 605 605 605 23 605 23 35 605 605 30 25 18 28 605 605 605 0 605 605 605 34 605 42 605 605 605 11 605 605 605 605 44 605 605 15 605 18 605 605 605 605 605 605 605 605 26 605 605 24 605 605 24 57 30 605 605 605 605 605 605 605 605 605 605 27 605 605 605 605 605 31 605 605 605 18 15 605 605 605 26 605 605 605 15
605 47 605 605 605 605 20 605 5 605 605 605 605 605 605 605 605 605 605 605 605 605 605 605 605 605 41 605 605 46 605 605 605 605 0 605 605 605 605 605 605 605 605 605 27 4 605 21 605 605 605 605 605 605 605 605 605 605 605 605 17 605 605 19 605 605 605 9 605 605 605 605 605 605 605 605 25 23 605 605 605 605 605 605 605 605 605 32 605 605 605 605 605 605 605 605 605 605 12 5 605
605 605 21 605 605 605 605 605 605 605 605 605 605 31 15 17 605 605 17 605 605 605 605 605 605 20 605 605 605 605 605 24 605 605 605 0 605 605 21 605 3 605 605 605 605 605 605 605 605 10 605 605 41 605 34 605 605 15 605 28 605 605 605 605 605 605 605 605 605 605 605 605 605 13 605 605 605 605 34 605 605 605 605 605 605 21 605 605 20 8 28 605 605 605 605 605 605 22 605 605 605
20 605 605 605 605 12 605 605 605 17 10 605 605 20 14 605 605 605 605 605 605 605 605 605 8 10 605 605 605 605 605 605 605 605 605 605 0 605 11 605 605 8 605 605 605 605 5 605 605 605 9 605 605 605 605 605 6 605 605 11 605 605 23 605 605 605 605 605 605 605 605 605 16 605 605 605 605 605 605 605 605 19 4 9 605 605 605 605 605 605 26 605 605 605 605 6 605 605 605 605 605
605 605 605 605 7 18 605 31 605 10 605 605 605 605 605 605 605 605 605 605 605 605 605 5 605 605 605 12 17 605 605 605 605 34 605 605 605 0 605 15 605 605 605 605 605 605 17 605 605 605 14 25 605 605 605 605 18 605 605 21 605 605 26 605 605 605 605 605 16 26 11 605 7 605 605 605 605 605 605 605 605 12 605 605 605 605 605 605 605 605 605 605 48 605 605 25 605 605 605 605 20
15 605 31 605 605 605 605 605 605 605 3 605 605 15 8 605 605 605 605 605 605 36 605 605 6 2 605 605 605 605 41 605 23 605 605 21 11 605 0 605 20 5 605 605 605 605 605 605 28 15 605 605 605 605 605 605 605 605 605 605 605 605 28 605 605 605 605 605 605 605 605 605 605 25 605 605 605 605 605 605 605 605 7 3 605 37 605 605 605 28 605 605 605 605 605 9 605 28 605 605 605
605 605 605 605 10 605 605 26 605 18 605 605 605 605 605 605 605 605 605 605 65 605 605 10 605 605 605 18 25 605 605 605 605 42 605 605 605 15 605 0 605 605 25 605 605 605 605 605 605 605 25 605 605 60 605 605 605 605 605 605 605 29 605 605 605 605 605 605 19 14 12 605 18 605 605 605 605 605 605 605 605 26 605 605 605 605 605 605 605 605 605 59 53 605 605 605 605 605 605 605 31
605 605 18 605 605 605 605 605 605 605 20 605 605 29 15 18 605 605 16 34 605 22 605 605 605 20 605 605 605 605 605 27 33 605 605 3 605 605 20 605 0 605 605 605 605 605 605 605 605 7 605 605 605 605 605 23 605 17 605 605 605 605 605 605 605 605 605 605 605 605 605 21 605 17 605 605 605 605 33 605 605 605 605 23 605 19 605 605 19 11 31 605 605 605 23 605 605 19 605 605 605
19 605 605 605 605 605 605 605 605 605 2 605 605 19 6 605 605 605 605 605 605 605 605 605 1 3 605 605 605 605 605 25 605 605 605 605 8 605 5 605 605 0 605 605 605 605 14 605 605 18 15 605 605 605 605 605 11 605 605 12 605 20 605 605 605 605 605 605 605 605 605 605 605 605 605 605 605 605 605 605 605 605 6 7 605 605 605 605 605 605 24 605 605 605 605 10 605 605 605 605 605
605 605 605 605 25 605 605 3 605 26 605 605 605 605 42 605 605 14 605 605 605 605 605 605 605 605 605 605 605 605 605 28 605 605 605 605 605 605 605 25 605 605 0 605 605 605 605 605 605 605 605 605 9 605 15 605 605 53 605 29 605 21 605 605 605 605 605 605 605 12 605 605 29 38 605 605 605 605 605 605 605 605 605 605 605 605 605 605 605 49 21 605 605 605 605 605 605 605 605 605 605
605 28 605 605 605 605 605 605 43 605 605 605 605 605 605 605 17 605 605 605 24 605 15 605 605 605 26 605 22 25 605 605 605 11 605 605 605 605 605 605 605 605 605 0 605 605 605 605 34 605 605 11 605 18 605 605 605 605 605 605 605 605 19 605 605 14 605 42 30 605 605 605 605 605 605 605 605 35 605 605 605 25 605 605 605 605 38 23 605 605 605 14 24 605 605 605 15 605 605 605 16
605 605 605 605 605 605 18 605 605 605 605 605 605 605 605 605 605 605 605 605 605 605 605 605 605 605 605 605 605 605 605 605 605 605 27 605 605 605 605 605 605 605 605 605 0 605 605 7 605 605 605 605 605 605 605 605 605 605 21 605 24 605 605 605 605 605 17 605 605 605 605 605 605 605 605 605 2 605 605 3 605 605 605 605 605 605 605 605 605 605 605 605 605 18 605 605 605 605 19 26 605
605 44 605 605 605 605 21 605 1 605 605 605 605 605 605 605 605 605 605 605 605 605 34 605 605 605 39 605 605 605 605 605 605 605 4 605 605 605 605 605 605 605 605 605 605 0 605 24 605 605 605 605 605 605 605 605 605 605 605 605 16 605 605 17 605 605 605 8 605 605 605 605 605 605 605 605 28 20 605 605 605 605 605 605 19 605 605 29 605 605 605 605 605 605 605 605 33 605 13 9 605
22 605 605 605 21 8 605 605 605 14 605 605 605 605 19 605 23 605 605 605 605 605 605 22 13 15 605 26 27 605 605 605 605 605 605 605 5 17 605 605 605 14 605 605 605 605 0 605 30 605 7 26 605 605 605 605 7 605 605 13 605 21 20 605 605 605 605 605 605 37 605 605 13 605 605 605 605 605 605 605 605 14 9 13 605 605 605 605 605 605 605 605 605 605 605 8 605 605 605 605 25
605 67 605 605 605 605 18 605 25 605 605 605 605 605 605 605 605 605 605 605 605 605 605 605 605 605 605 605 605 605 605 605 605 605 21 605 605 605 605 605 605 605 605 605 7 24 605 0 605 605 605 605 605 605 605 605 605 605 605 605 23 605 605 605 605 605 605 29 605 605 605 605 605 605 605 605 5 605 605 10 605 605 605 605 24 605 605 605 605 605 605 605 605 23 605 605 605 605 16 19 605
13 605 605 35 605 26 605 605 31 605 605 605 605 14 605 605 20 605 605 40 605 605 36 605 605 605 47 605 605 605 33 605 11 44 605 605 605 605 28 605 605 605 605 34 605 605 30 605 0 35 605 31 605 605 605 605 605 605 605 605 25 605 20 18 11 20 605 36 605 605 605 605 605 605 30 27 605 11 605 605 605 33 28 25 24 605 10 38 605 605 605 43 605 605 605 24 19 36 605 605 36
22 605 16 605 605 605 605 605 605 605 16 605 605 21 14 605 605 605 22 30 605 22 605 605 605 16 605 605 605 605 34 31 25 605 605 10 605 605 15 605 7 18 605 605 605 605 605 605 35 0 605 605 605 605 605 24 605 605 605 605 605 605 605 605 32 605 605 605 605 605 605 21 605 22 605 605 605 605 605 605 605 605 22 18 605 22 605 605 22 18 605 605 605 605 605 25 605 15 605 605 605
605 605 605 605 15 14 605 29 605 7 605 605 605 605 20 605 605 605 605 605 605 605 605 18 15 605 605 25 605 605 605 605 605 605 605 605 9 14 605 25 605 15 605 605 605 605 7 605 605 605 0 605 28 605 25 605 5 605 605 8 605 15 26 605 605 605 605 605 605 30 605 605 8 605 605 605 605 605 605 605 605 17 13 605 605 605 605 605 605 605 23 605 605 605 605 14 605 605 605 605 605
35 605 605 605 605 18 605 605 605 605 605 605 605 605 605 605 12 605 605 605 605 605 26 605 605 605 37 20 13 36 605 605 40 15 605 605 605 25 605 605 605 605 605 11 605 605 26 605 31 605 605 0 605 29 605 605 605 605 605 605 605 605 12 605 605 13 605 605 22 605 605 605 28 605 605 605 605 37 605 605 605 14 605 605 605 605 605 34 605 605 605 26 30 605 605 29 17 605 605 605 6
605 605 605 605 27 605 605 6 605 24 605 605 605 605 34 52 605 6 605 605 605 605 605 605 605 605 605 605 605 605 605 19 605 605 605 41 605 605 605 605 605 605 9 605 605 605 605 605 605 605 28 605 0 605 7 605 605 45 605 23 605 15 605 605 605 605 605 605 605 19 605 605 605 30 605 605 605 605 605 605 605 605 605 605 605 605 605 605 605 41 13 605 605 605 605 605 605 605 605 605 605
605 13 605 605 605 605 605 605 605 605 605 10 605 605 605 605 605 605 605 605 6 605 15 605 605 605 14 43 35 11 605 605 605 18 605 605 605 605 605 60 605 605 605 18 605 605 605 605 605 605 605 29 605 0 605 605 605 605 605 605 605 605 605 605 605 31 605 44 42 75 48 605 605 605 605 605 605 605 605 605 605 605 605 605 605 605 605 20 605 605 605 6 15 605 605 605 30 605 605 605 31
605 605 605 605 605 605 605 12 605 23 605 605 605 605 28 605 605 1 605 605 605 605 605 605 28 605 605 605 605 605 605 13 605 605 605 34 605 605 605 605 605 605 15 605 605 605 605 605 605 605 25 605 7 605 0 605 605 39 605 19 605 10 605 605 605 605 605 605 605 25 605 605 605 23 605 605 605 605 605 605 605 605 605 605 605 605 605 605 605 605 6 605 605 605 605 605 605 605 605 605 605
605 605 9 43 605 605 605 605 605 605 605 605 55 605 605 605 605 605 16 20 605 4 605 605 605 605 605 605 605 605 29 605 39 605 605 605 605 605 605 605 23 605 605 605 605 605 605 605 605 24 605 605 605 605 605 0 605 605 605 605 605 605 605 605 605 605 54 605 605 605 605 4 605 605 38 605 605 605 19 605 22 605 605 605 605 8 605 605 9 605 605 605 605 605 1 605 605 14 605 605 605
605 605 605 605 20 15 605 31 605 12 13 605 605 605 16 605 605 605 605 605 605 605 605 605 10 13 605 605 605 605 605 26 605 605 605 605 6 18 605 605 605 11 605 605 605 605 7 605 605 605 5 605 605 605 605 605 0 605 605 6 605 15 27 605 605 605 605 605 605 605 605 605 12 605 605 605 605 605 605 605 605 20 9 14 605 605 605 605 605 605 22 605 605 605 605 12 605 605 605 605 605
605 605 605 605 605 605 605 50 605 51 605 605 605 605 28 8 605 39 12 605 605 605 605 605 605 605 605 605 605 605 605 26 605 605 605 15 605 605 605 605 17 605 53 605 605 605 605 605 605 605 605 605 45 605 39 605 605 0 605 39 605 38 605 605 605 605 605 605 605 63 605 605 605 16 605 605 605 605 26 605 605 605 605 605 605 20 605 605 19 7 33 605 605 605 605 605 605 605 605 605 605
605 605 605 10 605 605 7 605 605 605 605 605 18 605 605 605 605 605 605 32 605 605 605 605 605 605 605 605 605 605 21 605 29 605 605 605 605 605 605 605 605 605 605 605 21 605 605 605 605 605 605 605 605 605 605 605 605 605 0 605 12 605 605 17 23 605 17 605 605 605 605 605 605 605 12 4 20 605 605 20 30 605 605 605 9 605 605 605 605 605 605 605 605 11 605 605 605 605 14 605 605
605 605 605 605 21 605 605 26 605 12 14 605 605 605 15 605 605 20 605 605 605 605 605 605 11 15 605 605 605 605 605 21 605 605 605 28 11 21 605 605 605 12 29 605 605 605 13 605 605 605 8 605 23 605 19 605 6 39 605 0 605 9 605 605 605 605 605 605 605 31 605 605 14 24 605 605 605 605 605 605 605 25 13 605 605 605 605 605 605 605 16 605 605 605 605 17 605 605 605 605 605
605 605 605 605 605 605 8 605 16 605 605 605 605 605 605 605 605 605 605 605 605 605 605 605 605 605 605 605 605 605 605 605 605 605 17 605 605 605 605 605 605 605 605 605 24 16 605 23 25 605 605 605 605 605 605 605 605 605 12 605 0 605 605 7 20 605 605 24 605 605 605 605 605 605 21 8 23 15 605 26 605 605 605 605 3 605 15 41 605 605 605 605 605 22 605 605 35 605 7 20 605
605 605 605 605 22 605 605 18 605 15 605 605 605 605 21 605 605 11 605 605 605 605 605 605 19 605 605 605 605 605 605 15 605 605 605 605 605 605 605 29 605 20 21 605 605 605 21 605 605 605 15 605 15 605 10 605 15 38 605 9 605 0 605 605 605 605 605 605 605 26 605 605 18 22 605 605 605 605 605 605 605 605 605 605 605 605 605 605 605 605 8 605 605 605 605 605 605 605 605 605 605
23 605 605 605 605 12 605 605 605 605 605 605 605 24 605 605 3 605 605 605 605 605 605 605 605 29 605 27 23 605 52 605 28 26 605 605 23 26 28 605 605 605 605 19 605 605 20 605 20 605 26 12 605 605 605 605 27 605 605 605 605 605 0 605 30 7 605 605 605 605 605 605 27 605 605 605 605 28 605 605 605 14 24 25 605 605 29 605 605 605 605 605 605 605 605 19 13 49 605 605 16
29 605 605 605 605 605 14 605 16 605 605 605 605 605 605 605 605 605 605 605 605 605 39 605 605 605 47 605 605 605 30 605 22 605 19 605 605 605 605 605 605 605 605 605 605 17 605 605 18 605 605 605 605 605 605 605 605 605 17 605 7 605 605 0 15 32 605 24 605 605 605 605 605 605 23 13 30 8 605 605 605 605 605 605 8 605 8 37 605 605 605 605 605 605 605 605 28 605 13 605 605
15 605 605 25 605 605 24 605 31 605 605 605 605 15 605 605 30 605 605 30 605 39 605 605 605 605 605 605 605 605 23 605 7 605 605 605 605 605 605 605 605 605 605 605 605 605 605 605 11 32 605 605 605 605 605 605 605 605 23 605 20 605 30 15 0 30 38 605 605 605 605 605 605 605 20 19 605 14 605 605 31 605 605 28 18 605 10 46 605 605 605 605 605 32 605 29 29 29 27 605 605
26 605 605 605 605 19 605 605 37 605 605 605 605 605 605 605 4 605 605 605 605 605 22 605 605 605 35 605 26 605 605 605 30 24 605 605 605 605 605 605 605 605 605 14 605 605 605 605 20 605 605 13 605 31 605 605 605 605 605 605 605 605 7 32 30 0 605 605 605 605 605 605 605 605 605 605 605 24 605 605 605 21 605 605 605 605 26 28 605 605 605 26 605 605 605 26 5 605 605 605 18
605 605 605 15 605 605 20 605 605 605 605 605 1 605 605 605 605 605 605 35 605 605 605 605 605 605 605 605 605 605 27 605 605 605 605 605 605 605 605 605 605 605 605 605 17 605 605 605 605 605 605 605 605 605 605 54 605 605 17 605 605 605 605 605 38 605 0 605 605 605 605 605 605 605 21 21 18 605 72 15 32 605 605 605 605 61 605 605 605 605 605 605 605 6 55 605 605 48 26 605 605
605 38 605 605 605 605 29 605 8 605 605 41 605 605 605 605 605 605 605 605 45 605 30 605 605 605 32 605 605 37 605 605 605 605 9 605 605 605 605 605 605 605 605 42 605 8 605 29 36 605 605 605 605 44 605 605 605 605 605 605 24 605 605 24 605 605 605 0 605 605 605 605 605 605 605 605 34 26 605 605 605 605 605 605 605 605 29 24 605 605 605 39 605 605 605 605 33 605 21 10 605
605 605 605 605 20 605 605 605 605 26 605 52 605 605 605 605 605 605 605 605 46 605 605 14 605 605 605 5 9 52 605 605 605 24 605 605 605 16 605 19 605 605 605 30 605 605 605 605 605 605 605 22 605 42 605 605 605 605 605 605 605 605 605 605 605 605 605 605 0 33 7 605 23 605 605 605 605 605 605 605 605 19 605 605 605 605 605 605 605 605 605 41 35 605 605 605 605 605 605 605 17
605 605 605 605 19 605 605 14 605 23 605 605 605 605 605 605 605 605 605 605 605 605 605 23 605 605 605 32 39 605 605 37 605 57 605 605 605 26 605 14 605 605 12 605 605 605 37 605 605 605 30 605 19 75 25 605 605 63 605 31 605 26 605 605 605 605 605 605 33 0 27 605 25 605 605 605 605 605 605 605 605 38 605 605 605 605 605 605 605 605 30 605 68 605 605 605 605 605 605 605 605
605 605 605 605 13 605 605 605 605 20 605 605 605 605 605 605 605 605 605 605 605 605 605 8 605 605 605 5 13 605 605 605 605 30 605 605 605 11 605 12 605 605 605 605 605 605 605 605 605 605 605 605 605 48 605 605 605 605 605 605 605 605 605 605 605 605 605 605 7 27 0 605 18 605 605 605 605 605 605 605 605 18 605 605 605 605 605 605 605 605 605 605 41 605 605 605 605 605 605 605 20
605 605 5 605 605 605 605 605 605 605 605 605 605 36 34 605 605 605 16 18 605 1 605 605 605 605 605 605 605 605 27 605 605 605 605 605 605 605 605 605 21 605 605 605 605 605 605 605 605 21 605 605 605 605 605 4 605 605 605 605 605 605 605 605 605 605 605 605 605 605 605 0 605 605 605 605 605 605 23 605 20 605 605 605 605 9 605 605 11 26 605 605 605 605 5 605 605 10 605 605 605
605 605 605 605 8 17 605 27 605 4 605 605 605 605 605 605 605 605 605 605 605 605 605 10 22 605 605 19 23 605 605 605 605 605 605 605 16 7 605 18 605 605 29 605 605 605 13 605 605 605 8 28 605 605 605 605 12 605 605 14 605 18 27 605 605 605 605 605 23 25 18 605 0 605 605 605 605 605 605 605 605 15 605 605 605 605 605 605 605 605 26 605 54 605 605 21 605 605 605 605 25
605 605 34 605 605 605 605 35 605 605 605 605 605 605 18 23 605 24 25 605 605 605 605 605 23 605 605 605 605 605 605 11 605 605 605 13 605 605 25 605 17 605 38 605 605 605 605 605 605 22 605 605 30 605 23 605 605 16 605 24 605 22 605 605 605 605 605 605 605 605 605 605 605 0 605 605 605 605 41 605 605 605 605 605 605 32 605 605 605 11 17 605 605 605 605 605 605 605 605 605 605
32 605 605 7 605 605 19 605 605 605 605 605 22 32 605 605 605 605 605 19 605 605 605 605 605 605 605 605 605 605 9 605 24 605 605 605 605 605 605 605 605 605 605 605 605 605 605 605 30 605 605 605 605 605 605 38 605 605 12 605 21 605 605 23 20 605 21 605 605 605 605 605 605 605 0 13 605 605 605 31 18 605 605 605 18 605 25 605 605 605 605 605 605 15 605 605 605 29 605 605 605
605 605 605 13 605 605 6 605 24 605 605 605 605 605 605 605 605 605 605 605 605 605 605 605 605 605 605 605 605 605 22 605 26 605 605 605 605 605 605 605 605 605 605 605 605 605 605 605 27 605 605 605 605 605 605 605 605 605 4 605 8 605 605 13 19 605 21 605 605 605 605 605 605 605 13 0 23 20 605 24 32 605 605 605 5 605 18 605 605 605 605 605 605 15 605 605 605 40 13 605 605
605 605 605 26 605 605 17 605 28 605 605 605 18 605 605 605 605 605 605 605 605 605 605 605 605 605 605 605 605 605 605 605 605 605 25 605 605 605 605 605 605 605 605 605 2 28 605 5 605 605 605 605 605 605 605 605 605 605 20 605 23 605 605 30 605 605 18 34 605 605 605 605 605 605 605 23 0 605 605 5 605 605 605 605 23 605 605 605 605 605 605 605 605 19 605 605 605 605 18 24 605
24 48 605 605 605 605 23 605 19 605 605 605 605 605 605 605 26 605 605 605 605 605 33 605 605 605 43 605 605 605 34 605 19 605 23 605 605 605 605 605 605 605 605 35 605 20 605 605 11 605 605 37 605 605 605 605 605 605 605 605 15 605 28 8 14 24 605 26 605 605 605 605 605 605 605 20 605 0 605 605 605 605 605 605 16 605 4 32 605 605 605 41 605 605 605 605 20 605 21 605 605
605 605 28 61 605 605 605 605 605 605 605 605 72 605 605 18 605 605 17 38 605 23 605 605 605 605 605 605 605 605 48 52 605 605 605 34 605 605 605 605 33 605 605 605 605 605 605 605 605 605 605 605 605 605 605 19 605 26 605 605 605 605 605 605 605 605 72 605 605 605 605 23 605 41 605 605 605 605 0 85 40 605 605 605 605 16 605 605 15 30 605 605 605 69 19 605 605 605 605 605 605
605 605 605 25 605 605 19 605 33 605 605 605 14 605 605 605 605 605 605 605 605 605 605 605 605 605 605 605 605 605 38 605 605 605 605 605 605 605 605 605 605 605 605 605 3 605 605 10 605 605 605 605 605 605 605 605 605 605 20 605 26 605 605 605 605 605 15 605 605 605 605 605 605 605 31 24 5 605 85 0 46 605 605 605 25 605 605 605 605 605 605 605 605 16 68 605 605 605 21 28 605
605 605 20 22 605 605 37 605 605 605 605 605 33 37 605 605 605 605 37 3 605 19 605 605 605 605 605 605 605 605 10 605 31 605 605 605 605 605 605 605 605 605 605 605 605 605 605 605 605 605 605 605 605 605 605 22 605 605 30 605 605 605 605 605 31 605 32 605 605 605 605 20 605 605 18 32 605 605 40 46 0 605 605 605 605 29 605 605 31 605 605 605 605 29 22 605 605 19 605 605 605
31 605 605 605 19 9 605 605 605 18 605 605 605 605 605 605 17 605 605 605 605 605 605 16 605 605 605 15 13 605 605 605 605 27 605 605 19 12 605 26 605 605 605 25 605 605 14 605 33 605 17 14 605 605 605 605 20 605 605 25 605 605 14 605 605 21 605 605 19 38 18 605 15 605 605 605 605 605 605 605 605 0 22 26 605 605 605 605 605 605 605 39 42 605 605 20 605 605 605 605 11
17 605 605 605 605 14 605 605 605 605 7 605 605 17 12 605 605 605 605 605 605 605 605 605 6 7 605 605 605 605 605 605 25 605 605 605 4 605 7 605 605 6 605 605 605 605 9 605 28 22 13 605 605 605 605 605 9 605 605 13 605 605 24 605 605 605 605 605 605 605 605 605 605 605 605 605 605 605 605 605 605 22 0 5 605 605 605 605 605 605 27 605 605 605 605 4 605 605 605 605 605
13 605 33 605 605 18 605 605 605 605 5 605 605 13 11 605 28 605 605 605 605 605 605 605 7 5 605 605 605 605 41 605 21 605 605 605 9 605 3 605 23 7 605 605 605 605 13 605 25 18 605 605 605 605 605 605 14 605 605 605 605 605 25 605 28 605 605 605 605 605 605 605 605 605 605 605 605 605 605 605 605 26 5 0 605 605 605 605 605 605 605 605 605 605 605 6 605 30 605 605 605
605 605 605 18 605 605 7 605 19 605 605 605 605 605 605 605 605 605 605 605 605 605 605 605 605 605 605 605 605 605 26 605 26 605 605 605 605 605 605 605 605 605 605 605 605 19 605 24 24 605 605 605 605 605 605 605 605 605 9 605 3 605 605 8 18 605 605 605 605 605 605 605 605 605 18 5 23 16 605 25 605 605 605 605 0 605 15 44 605 605 605 605 605 20 605 605 605 605 9 605 605
605 605 12 605 605 605 605 605 605 605 605 605 62 41 34 13 605 605 8 27 605 10 605 605 605 605 605 605 605 605 36 605 605 605 605 21 605 605 37 605 19 605 605 605 605 605 605 605 605 22 605 605 605 605 605 8 605 20 605 605 605 605 605 605 605 605 61 605 605 605 605 9 605 32 605 605 605 605 16 605 29 605 605 605 605 0 605 605 2 21 605 605 605 605 7 605 605 17 605 605 605
22 605 605 605 605 605 21 605 22 605 605 605 605 22 605 605 27 605 605 605 605 605 36 605 605 605 605 605 605 605 30 605 16 605 605 605 605 605 605 605 605 605 605 38 605 605 605 605 10 605 605 605 605 605 605 605 605 605 605 605 15 605 29 8 10 26 605 29 605 605 605 605 605 605 25 18 605 4 605 605 605 605 605 605 15 605 0 36 605 605 605 605 605 605 605 605 23 39 21 605 605
605 16 605 605 605 605 605 605 28 605 605 18 605 605 605 605 32 605 605 605 605 605 9 605 605 605 10 605 605 14 605 605 605 31 32 605 605 605 605 605 605 605 605 23 605 29 605 605 38 605 605 34 605 20 605 605 605 605 605 605 41 605 605 37 46 28 605 24 605 605 605 605 605 605 605 605 605 32 605 605 605 605 605 605 44 605 36 0 605 605 605 16 605 605 605 605 24 605 41 34 605
605 605 14 605 605 605 605 605 605 605 605 605 64 605 605 12 605 605 7 605 605 605 605 605 605 605 605 605 605 605 605 605 605 605 605 20 605 605 605 605 19 605 605 605 605 605 605 605 605 22 605 605 605 605 605 9 605 19 605 605 605 605 605 605 605 605 605 605 605 605 605 11 605 605 605 605 605 605 15 605 31 605 605 605 605 2 605 605 0 20 605 605 605 605 9 605 605 605 605 605 605
605 605 25 605 605 605 605 605 605 605 605 605 605 605 21 12 605 35 14 605 605 605 605 605 605 605 605 605 605 605 605 22 605 605 605 8 605 605 28 605 11 605 49 605 605 605 605 605 605 18 605 605 41 605 605 605 605 7 605 605 605 605 605 605 605 605 605 605 605 605 605 26 605 11 605 605 605 605 30 605 605 605 605 605 605 21 605 605 20 0 28 605 605 605 605 605 605 605 605 605 605
605 605 605 605 605 605 605 18 605 23 26 605 605 605 23 605 605 7 605 605 605 605 605 605 23 605 605 605 605 605 605 8 605 605 605 28 26 605 605 605 31 24 21 605 605 605 605 605 605 605 23 605 13 605 6 605 22 33 605 16 605 8 605 605 605 605 605 605 605 30 605 605 26 17 605 605 605 605 605 605 605 605 27 605 605 605 605 605 605 28 0 605 605 605 605 605 605 605 605 605 605
605 13 605 605 605 605 605 605 43 605 605 12 605 605 605 605 30 605 605 605 10 605 9 605 605 605 13 605 34 11 605 605 605 18 605 605 605 605 605 59 605 605 605 14 605 605 605 605 43 605 605 26 605 6 605 605 605 605 605 605 605 605 605 605 605 26 605 39 41 605 605 605 605 605 605 605 605 41 605 605 605 39 605 605 605 605 605 16 605 605 605 0 19 605 605 605 25 605 605 49 29
605 26 605 605 53 605 605 78 605 58 605 22 605 605 605 605 605 605 605 605 16 605 28 48 605 605 29 37 31 25 605 605 605 15 605 605 605 48 605 53 605 605 605 24 605 605 605 605 605 605 605 30 605 15 605 605 605 605 605 605 605 605 605 605 605 605 605 605 35 68 41 605 54 605 605 605 605 605 605 605 605 42 605 605 605 605 605 605 605 605 605 19 0 605 605 605 605 605 605 605 30
605 605 605 9 605 605 15 605 605 605 605 605 7 605 605 605 605 605 605 31 605 605 605 605 605 605 605 605 605 605 22 605 605 605 605 605 605 605 605 605 605 605 605 605 18 605 605 23 605 605 605 605 605 605 605 605 605 605 11 605 22 605 605 605 32 605 6 605 605 605 605 605 605 605 15 15 19 605 69 16 29 605 605 605 20 605 605 605 605 605 605 605 605 0 605 605 605 605 22 605 605
605 605 10 43 605 605 605 605 605 605 605 605 56 605 605 21 605 605 15 20 605 5 605 605 605 605 605 605 605 605 30 605 605 605 605 605 605 605 605 605 23 605 605 605 605 605 605 605 605 605 605 605 605 605 605 1 605 605 605 605 605 605 605 605 605 605 55 605 605 605 605 5 605 605 605 605 605 605 19 68 22 605 605 605 605 7 605 605 9 605 605 605 605 605 0 605 605 15 605 605 605
15 605 605 605 605 11 605 605 605 605 10 605 605 15 16 605 22 605 605 605 605 605 605 605 10 10 605 605 605 605 605 605 23 605 605 605 6 25 9 605 605 10 605 605 605 605 8 605 24 25 14 29 605 605 605 605 12 605 605 17 605 605 19 605 29 26 605 605 605 605 605 605 21 605 605 605 605 605 605 605 605 20 4 6 605 605 605 605 605 605 605 605 605 605 605 0 605 35 605 605 30
28 35 605 605 605 605 605 605 32 605 605 605 605 605 605 605 9 605 605 605 605 605 19 605 605 605 31 605 605 33 605 605 30 26 605 605 605 605 605 605 605 605 605 15 605 33 605 605 19 605 605 17 605 30 605 605 605 605 605 605 35 605 13 28 29 5 605 33 605 605 605 605 605 605 605 605 605 20 605 605 605 605 605 605 605 605 23 24 605 605 605 25 605 605 605 605 0 605 605 605 23
27 605 5 35 605 605 605 605 605 605 605 605 605 26 28 605 605 605 22 16 605 10 605 605 605 29 605 605 605 605 21 605 25 605 605 22 605 605 28 605 19 605 605 605 605 605 605 605 36 15 605 605 605 605 605 14 605 605 605 605 605 605 49 605 29 605 48 605 605 605 605 10 605 605 29 40 605 605 605 605 19 605 605 30 605 17 39 605 605 605 605 605 605 605 15 35 605 0 605 605 605
605 57 605 605 605 605 8 605 14 605 605 605 605 605 605 605 605 605 605 605 605 605 605 605 605 605 51 605 605 605 605 605 605 605 12 605 605 605 605 605 605 605 605 605 19 13 605 16 605 605 605 605 605 605 605 605 605 605 14 605 7 605 605 13 27 605 26 21 605 605 605 605 605 605 605 13 18 21 605 21 605 605 605 605 9 605 21 41 605 605 605 605 605 22 605 605 605 605 0 15 605
605 48 605 605 605 605 22 605 9 605 605 51 605 605 605 605 605 605 605 605 605 605 41 605 605 605 43 605 605 47 605 605 605 605 5 605 605 605 605 605 605 605 605 605 26 9 605 19 605 605 605 605 605 605 605 605 605 605 605 605 20 605 605 605 605 605 605 10 605 605 605 605 605 605 605 605 24 605 605 28 605 605 605 605 605 605 605 34 605 605 605 49 605 605 605 605 605 605 15 0 605
605 605 605 605 605 18 605 605 605 605 605 605 605 605 605 605 16 605 605 605 605 605 30 22 605 605 605 15 8 605 605 605 605 15 605 605 605 20 605 31 605 605 605 16 605 605 25 605 36 605 605 6 605 31 605 605 605 605 605 605 605 605 16 605 605 18 605 605 17 605 20 605 25 605 605 605 605 605 605 605 605 11 605 605 605 605 605 605 605 605 605 29 30 605 605 30 23 605 605 605 0
EOF
